p cnf 60 213
4 2 0
4 3 0
-2 -3 -4 0
-5 1 0
-5 -4 0
-1 4 5 0
-1 -7 -8 0
1 7 -8 0
-1 7 8 0
1 -7 8 0
9 2 0
9 8 0
-2 -8 -9 0
6 -9 -10 0
-6 9 -10 0
6 9 10 0
-6 -9 10 0
-11 10 0
-11 -2 0
-10 2 11 0
14 -12 0
14 -13 0
12 13 -14 0
-15 7 0
-15 -14 0
-7 14 15 0
-1 -7 -17 0
1 7 -17 0
-1 7 17 0
1 -7 17 0
-18 6 0
-18 17 0
-6 -17 18 0
19 -16 0
19 -18 0
16 18 -19 0
15 -19 -20 0
-15 19 -20 0
15 19 20 0
-15 -19 20 0
-11 -20 -21 0
11 20 -21 0
-11 20 21 0
11 -20 21 0
-22 -7 0
-22 3 0
7 -3 22 0
-23 12 0
-23 -13 0
-12 13 23 0
-19 -23 -24 0
19 23 -24 0
-19 23 24 0
19 -23 24 0
25 24 0
25 24 0
-24 -25 0
-26 22 0
-26 25 0
-22 -25 26 0
-28 -26 0
-28 -27 0
26 27 28 0
29 21 0
29 28 0
-21 -28 -29 0
-30 5 0
-30 29 0
-5 -29 30 0
-31 -12 0
-31 12 0
24 20 -32 0
-24 -20 -32 0
24 -20 32 0
-24 20 32 0
-33 31 0
-33 32 0
-31 -32 33 0
-34 30 0
-34 -33 0
-30 33 34 0
35 11 -36 0
-35 -11 -36 0
35 -11 36 0
-35 11 36 0
-27 37 0
27 37 0
37 -19 -38 0
-37 19 -38 0
37 19 38 0
-37 -19 38 0
-39 36 0
-39 -38 0
-36 38 39 0
40 23 0
40 14 0
-23 -14 -40 0
-41 -14 0
-41 4 0
14 -4 41 0
-42 -4 0
-42 -41 0
4 41 42 0
-43 40 0
-43 -42 0
-40 42 43 0
25 20 -44 0
-25 -20 -44 0
25 -20 44 0
-25 20 44 0
45 -44 0
45 -44 0
44 -45 0
-46 -43 0
-46 -45 0
43 45 46 0
47 39 0
47 -46 0
-39 46 -47 0
48 34 0
48 -47 0
-34 47 -48 0
-49 8 0
-49 16 0
-8 -16 49 0
50 -49 0
50 10 0
49 -10 -50 0
-51 -2 0
-51 -50 0
2 50 51 0
-52 26 0
-52 -6 0
-26 6 52 0
-51 52 -53 0
51 -52 -53 0
-51 -52 53 0
51 52 53 0
-23 2 -54 0
23 -2 -54 0
-23 -2 54 0
23 2 54 0
-55 53 0
-55 -54 0
-53 54 55 0
8 2 -56 0
-8 -2 -56 0
8 -2 56 0
-8 2 56 0
-55 -56 -57 0
55 56 -57 0
-55 56 57 0
55 -56 57 0
58 -20 0
58 -24 0
20 24 -58 0
57 58 -59 0
-57 -58 -59 0
57 -58 59 0
-57 58 59 0
60 -48 0
60 -59 0
48 59 -60 0
-34 47 -27 0
-54 19 -41 -5 3 0
-59 -29 50 14 0
-40 24 -44 42 -53 12 0
-37 6 -45 23 42 0
-34 44 27 41 45 0
-14 12 -59 0
-20 5 31 60 -22 0
41 25 -27 0
-8 -17 52 0
-19 30 0
33 -22 57 0
35 7 37 0
-27 8 0
5 60 34 -10 0
52 23 -29 46 33 31 0
-15 -46 30 -11 0
-53 -8 -39 -7 -49 0
5 -12 20 0
-26 45 -22 0
36 58 -38 0
-6 1 13 -19 36 -46 0
25 -56 13 22 -45 -28 0
-36 -28 4 60 0
-53 -21 52 -23 0
-20 53 -28 -17 5 23 0
15 53 51 7 32 60 0
47 -27 0
58 -18 -37 -11 41 56 0
-7 -43 -42 -55 12 0
50 36 -19 0
-13 9 -51 -33 0
-9 46 40 0
23 -27 -15 -21 -55 -16 0
18 -19 20 -37 0
52 -44 -13 0
23 -14 6 5 42 0
58 -28 11 59 -33 0
-21 -8 0
42 9 -39 -56 49 0
-20 33 0
46 -37 29 0
-13 -10 -57 -60 -9 44 0
-46 -10 -30 7 4 22 0
40 -41 -3 20 -29 56 0
48 -24 -46 0
-23 -16 0
46 49 -51 -54 36 0
-57 29 0
60 0
